p edges 291 1343
e 1 80
e 1 278
e 2 150
e 2 154
e 2 207
e 2 268
e 3 119
e 3 128
e 3 236
e 3 237
e 4 115
e 4 162
e 5 131
e 5 132
e 6 138
e 6 139
e 6 158
e 6 159
e 6 181
e 6 202
e 6 203
e 6 204
e 6 205
e 6 206
e 6 269
e 7 180
e 7 182
e 7 209
e 7 279
e 8 85
e 8 106
e 8 107
e 8 108
e 8 213
e 9 175
e 9 240
e 9 274
e 9 275
e 10 113
e 10 120
e 10 143
e 10 163
e 10 196
e 10 235
e 10 290
e 11 90
e 11 110
e 11 221
e 11 226
e 12 86
e 12 87
e 12 88
e 12 114
e 12 115
e 12 116
e 12 152
e 12 153
e 12 209
e 12 211
e 12 229
e 12 290
e 12 291
e 13 114
e 13 115
e 13 180
e 13 281
e 14 183
e 14 189
e 15 79
e 15 92
e 15 221
e 15 222
e 15 234
e 16 127
e 16 256
e 17 105
e 17 148
e 17 156
e 17 189
e 17 195
e 17 201
e 18 150
e 18 156
e 18 160
e 18 161
e 18 177
e 18 185
e 18 224
e 18 280
e 19 93
e 19 172
e 19 173
e 19 174
e 19 183
e 19 185
e 19 282
e 19 284
e 20 72
e 20 76
e 20 111
e 20 124
e 20 125
e 20 132
e 20 133
e 20 134
e 20 135
e 20 136
e 20 137
e 21 71
e 21 102
e 21 106
e 21 186
e 21 215
e 21 289
e 22 66
e 22 101
e 22 104
e 22 134
e 22 135
e 22 148
e 23 207
e 23 239
e 24 139
e 24 140
e 24 141
e 24 215
e 24 239
e 25 73
e 25 152
e 26 228
e 26 229
e 26 230
e 26 288
e 27 74
e 27 77
e 27 78
e 27 164
e 27 178
e 27 288
e 27 290
e 28 70
e 28 77
e 28 116
e 28 153
e 29 91
e 29 94
e 29 95
e 29 106
e 29 107
e 29 108
e 29 208
e 29 212
e 29 213
e 29 227
e 29 228
e 29 243
e 29 252
e 29 266
e 29 267
e 29 289
e 30 104
e 30 184
e 30 223
e 30 255
e 30 257
e 31 66
e 31 162
e 31 195
e 31 274
e 31 275
e 32 109
e 32 148
e 32 210
e 32 211
e 33 96
e 33 97
e 33 241
e 33 242
e 33 255
e 34 100
e 34 101
e 34 154
e 34 155
e 34 175
e 34 176
e 34 177
e 34 223
e 34 239
e 34 245
e 34 246
e 34 247
e 34 248
e 34 250
e 35 133
e 35 136
e 35 137
e 35 280
e 36 81
e 36 103
e 37 66
e 37 69
e 37 105
e 37 111
e 37 112
e 37 117
e 37 149
e 37 190
e 38 120
e 38 122
e 38 123
e 38 176
e 38 178
e 38 197
e 39 235
e 39 238
e 40 146
e 40 156
e 40 171
e 40 208
e 40 252
e 40 266
e 40 267
e 41 80
e 41 165
e 41 170
e 41 235
e 41 268
e 41 278
e 42 117
e 42 118
e 42 171
e 42 266
e 42 267
e 42 268
e 43 177
e 43 178
e 43 280
e 44 65
e 44 90
e 44 132
e 44 145
e 44 179
e 44 270
e 45 91
e 45 155
e 45 222
e 45 244
e 46 102
e 46 103
e 46 127
e 46 183
e 46 190
e 46 196
e 46 197
e 46 241
e 46 242
e 46 244
e 46 270
e 47 128
e 47 129
e 47 194
e 47 200
e 47 214
e 48 66
e 48 225
e 48 243
e 49 86
e 49 89
e 49 119
e 49 147
e 49 151
e 49 214
e 49 246
e 49 248
e 49 249
e 50 91
e 50 100
e 50 130
e 50 225
e 50 275
e 51 187
e 51 282
e 51 283
e 51 285
e 51 286
e 52 263
e 52 272
e 53 110
e 53 191
e 54 243
e 54 250
e 55 68
e 55 83
e 55 84
e 55 88
e 55 89
e 55 283
e 55 284
e 55 285
e 55 286
e 56 73
e 56 75
e 56 77
e 56 98
e 56 126
e 56 166
e 56 167
e 56 168
e 56 170
e 56 236
e 56 237
e 56 291
e 57 143
e 57 164
e 57 165
e 57 169
e 57 224
e 57 285
e 58 153
e 58 188
e 58 225
e 59 216
e 59 226
e 59 229
e 59 230
e 60 67
e 60 93
e 60 105
e 60 163
e 60 165
e 60 169
e 60 172
e 60 173
e 60 174
e 60 201
e 60 268
e 61 69
e 61 162
e 61 253
e 61 254
e 62 98
e 62 277
e 63 126
e 63 144
e 63 160
e 63 161
e 63 195
e 63 201
e 63 238
e 63 265
e 63 288
e 64 121
e 64 122
e 64 123
e 64 124
e 64 150
e 64 224
e 64 227
e 64 229
e 65 131
e 65 132
e 65 134
e 65 145
e 65 157
e 65 159
e 65 260
e 65 287
e 66 104
e 66 149
e 67 128
e 67 149
e 67 184
e 67 198
e 67 283
e 67 284
e 67 286
e 68 88
e 68 147
e 68 233
e 68 258
e 68 275
e 68 283
e 68 284
e 68 285
e 69 149
e 69 253
e 69 254
e 70 140
e 70 181
e 70 182
e 71 102
e 71 210
e 71 211
e 71 212
e 71 251
e 71 289
e 72 75
e 72 76
e 72 78
e 72 111
e 72 121
e 72 124
e 72 125
e 72 132
e 72 133
e 72 134
e 72 135
e 72 201
e 73 74
e 73 75
e 73 78
e 73 98
e 73 121
e 73 122
e 73 123
e 73 197
e 73 236
e 73 237
e 73 278
e 74 75
e 74 76
e 74 78
e 74 121
e 74 122
e 74 123
e 74 164
e 74 197
e 74 278
e 75 76
e 75 77
e 75 78
e 75 86
e 75 98
e 75 104
e 75 121
e 75 123
e 75 197
e 75 201
e 75 237
e 75 263
e 76 111
e 76 121
e 76 124
e 76 134
e 76 135
e 76 136
e 76 137
e 77 78
e 77 98
e 77 116
e 77 153
e 77 164
e 77 237
e 78 104
e 78 121
e 78 122
e 78 123
e 78 164
e 78 178
e 78 201
e 78 288
e 78 290
e 79 104
e 79 200
e 79 247
e 79 248
e 80 165
e 80 235
e 81 125
e 81 132
e 81 139
e 81 202
e 81 203
e 81 205
e 82 99
e 82 130
e 82 142
e 82 194
e 82 200
e 82 217
e 82 218
e 82 219
e 82 257
e 82 262
e 83 84
e 83 89
e 83 220
e 83 253
e 83 263
e 83 273
e 83 277
e 83 286
e 84 89
e 84 119
e 84 253
e 84 254
e 84 286
e 85 213
e 86 89
e 86 115
e 86 119
e 86 192
e 86 221
e 86 240
e 86 263
e 86 290
e 86 291
e 87 88
e 87 94
e 87 96
e 87 116
e 87 117
e 87 118
e 87 136
e 87 144
e 87 146
e 87 153
e 87 229
e 87 265
e 88 116
e 88 118
e 88 153
e 88 229
e 88 284
e 88 291
e 89 119
e 89 184
e 89 198
e 89 271
e 89 286
e 90 125
e 90 179
e 90 193
e 90 221
e 90 226
e 90 256
e 90 261
e 90 276
e 91 94
e 91 106
e 91 107
e 91 108
e 91 147
e 91 213
e 91 243
e 91 251
e 91 289
e 92 99
e 92 161
e 92 188
e 92 222
e 92 265
e 93 105
e 93 163
e 93 165
e 93 183
e 93 185
e 94 95
e 94 96
e 94 106
e 94 107
e 94 108
e 94 136
e 94 208
e 94 213
e 94 243
e 94 252
e 94 265
e 94 289
e 95 97
e 95 108
e 95 251
e 95 265
e 95 289
e 96 136
e 96 265
e 98 126
e 98 166
e 98 167
e 98 168
e 98 236
e 98 237
e 98 291
e 99 161
e 99 188
e 99 217
e 99 265
e 100 130
e 100 225
e 100 239
e 100 245
e 100 246
e 100 250
e 100 275
e 101 104
e 101 134
e 101 135
e 101 148
e 101 154
e 101 155
e 101 176
e 101 177
e 101 223
e 101 239
e 101 245
e 101 246
e 101 247
e 101 248
e 102 103
e 102 127
e 102 183
e 102 190
e 102 196
e 102 241
e 102 242
e 102 244
e 102 270
e 103 183
e 103 190
e 103 196
e 103 241
e 103 242
e 103 244
e 103 270
e 104 121
e 104 184
e 104 200
e 104 201
e 104 221
e 104 223
e 104 247
e 104 248
e 104 257
e 105 148
e 105 149
e 105 163
e 105 165
e 105 169
e 105 172
e 105 173
e 105 174
e 105 190
e 105 195
e 106 107
e 106 108
e 106 186
e 106 207
e 106 208
e 106 210
e 106 211
e 106 212
e 106 227
e 106 228
e 106 251
e 106 266
e 106 267
e 106 289
e 107 108
e 107 213
e 107 289
e 108 289
e 109 118
e 111 117
e 111 124
e 111 125
e 111 132
e 111 134
e 111 135
e 112 113
e 112 114
e 112 166
e 112 167
e 112 168
e 112 169
e 112 170
e 112 191
e 112 279
e 112 281
e 113 114
e 113 143
e 113 163
e 113 166
e 113 167
e 113 168
e 113 191
e 113 196
e 113 235
e 113 279
e 114 166
e 114 168
e 114 180
e 114 209
e 114 279
e 114 291
e 115 180
e 115 290
e 115 291
e 116 153
e 116 211
e 116 229
e 116 291
e 117 144
e 117 146
e 117 171
e 117 266
e 117 291
e 118 143
e 119 151
e 119 246
e 119 249
e 119 254
e 120 163
e 120 193
e 120 197
e 120 275
e 120 279
e 120 290
e 121 122
e 121 123
e 121 150
e 121 201
e 121 224
e 121 278
e 122 123
e 122 124
e 122 150
e 122 197
e 122 224
e 122 227
e 122 229
e 122 278
e 123 124
e 123 150
e 123 197
e 123 224
e 123 227
e 123 229
e 123 278
e 124 134
e 124 135
e 124 150
e 124 193
e 124 224
e 124 227
e 124 229
e 124 256
e 125 132
e 125 134
e 125 135
e 125 139
e 125 140
e 125 141
e 125 145
e 125 193
e 125 202
e 125 203
e 125 205
e 125 256
e 126 144
e 126 160
e 126 161
e 126 166
e 126 167
e 126 195
e 126 201
e 126 237
e 126 238
e 126 265
e 126 288
e 127 197
e 128 129
e 128 149
e 128 194
e 128 198
e 128 199
e 128 283
e 128 284
e 128 286
e 129 130
e 129 142
e 129 188
e 129 194
e 129 214
e 129 219
e 129 231
e 129 257
e 129 259
e 129 271
e 130 200
e 130 217
e 130 218
e 130 219
e 130 231
e 130 257
e 130 271
e 131 287
e 132 134
e 132 135
e 132 139
e 132 140
e 132 141
e 132 145
e 132 202
e 132 203
e 132 205
e 134 135
e 134 138
e 134 145
e 134 157
e 134 159
e 134 202
e 134 203
e 134 204
e 134 205
e 134 206
e 134 260
e 135 138
e 135 204
e 135 205
e 135 206
e 135 260
e 136 137
e 136 265
e 137 280
e 138 157
e 138 158
e 138 159
e 138 202
e 138 204
e 138 205
e 138 206
e 138 260
e 138 261
e 138 269
e 139 141
e 139 215
e 139 239
e 140 141
e 140 215
e 140 260
e 141 215
e 142 188
e 142 194
e 142 217
e 142 220
e 142 258
e 142 259
e 142 262
e 142 271
e 143 163
e 143 165
e 143 169
e 143 285
e 144 146
e 144 160
e 144 161
e 144 195
e 144 201
e 144 238
e 144 265
e 144 288
e 144 291
e 145 157
e 145 159
e 145 193
e 145 256
e 145 260
e 145 287
e 146 156
e 146 171
e 146 267
e 146 291
e 147 151
e 147 186
e 147 248
e 147 249
e 147 251
e 147 258
e 147 275
e 148 195
e 148 201
e 149 190
e 149 198
e 149 199
e 149 281
e 149 282
e 149 283
e 149 285
e 149 286
e 150 154
e 150 161
e 150 185
e 150 224
e 150 227
e 150 229
e 151 186
e 151 214
e 151 246
e 151 249
e 151 258
e 151 259
e 153 211
e 153 229
e 153 291
e 154 176
e 154 177
e 154 247
e 154 248
e 154 268
e 155 176
e 155 177
e 155 222
e 155 223
e 155 244
e 155 245
e 155 246
e 156 160
e 156 171
e 156 177
e 156 267
e 156 280
e 157 158
e 157 159
e 157 202
e 157 203
e 157 206
e 157 260
e 157 261
e 157 269
e 157 276
e 158 159
e 158 204
e 158 205
e 158 206
e 158 260
e 158 261
e 158 269
e 158 276
e 159 204
e 159 205
e 159 206
e 159 260
e 159 261
e 159 269
e 159 276
e 160 177
e 160 185
e 160 201
e 160 238
e 160 280
e 160 288
e 161 185
e 161 188
e 161 238
e 161 288
e 162 254
e 163 165
e 163 196
e 163 290
e 164 285
e 164 288
e 164 290
e 165 169
e 165 172
e 165 173
e 165 174
e 165 201
e 165 235
e 165 268
e 165 278
e 165 285
e 166 167
e 166 168
e 166 169
e 166 170
e 166 191
e 166 237
e 166 279
e 166 281
e 167 168
e 167 169
e 167 170
e 167 191
e 167 237
e 167 281
e 167 291
e 168 169
e 168 170
e 168 191
e 168 237
e 168 279
e 168 281
e 168 291
e 169 170
e 169 172
e 169 173
e 169 174
e 169 201
e 169 268
e 169 281
e 169 285
e 170 281
e 171 266
e 171 267
e 171 268
e 172 173
e 172 174
e 172 185
e 172 201
e 172 284
e 173 174
e 173 185
e 173 201
e 173 268
e 174 185
e 174 201
e 174 268
e 174 282
e 174 284
e 175 176
e 175 239
e 175 240
e 175 247
e 175 248
e 175 274
e 176 177
e 176 197
e 176 223
e 176 239
e 176 245
e 176 246
e 176 247
e 176 248
e 177 185
e 177 223
e 177 245
e 177 246
e 177 247
e 177 248
e 178 290
e 179 186
e 179 232
e 179 233
e 179 247
e 179 249
e 179 262
e 179 270
e 179 287
e 180 182
e 180 209
e 180 281
e 181 182
e 181 216
e 181 217
e 181 236
e 181 264
e 181 269
e 182 216
e 182 217
e 182 236
e 182 264
e 183 190
e 183 241
e 183 244
e 184 198
e 184 216
e 184 217
e 184 218
e 184 223
e 184 255
e 184 257
e 184 264
e 184 271
e 184 283
e 184 286
e 185 282
e 186 207
e 186 210
e 186 211
e 186 212
e 186 215
e 186 232
e 186 233
e 186 251
e 186 252
e 186 262
e 186 289
e 187 200
e 187 232
e 187 234
e 187 245
e 187 246
e 187 250
e 187 263
e 187 282
e 187 283
e 187 285
e 188 259
e 190 241
e 190 244
e 192 221
e 192 240
e 192 242
e 192 264
e 193 205
e 193 241
e 193 242
e 193 255
e 193 256
e 193 261
e 193 275
e 193 276
e 193 279
e 194 214
e 194 262
e 195 201
e 195 265
e 196 235
e 196 241
e 196 270
e 198 199
e 198 271
e 198 283
e 198 284
e 198 286
e 199 264
e 199 273
e 199 281
e 199 282
e 199 285
e 199 286
e 200 214
e 200 217
e 200 218
e 200 219
e 200 221
e 200 232
e 200 234
e 200 245
e 200 246
e 200 247
e 200 248
e 200 250
e 200 257
e 200 263
e 201 238
e 201 268
e 202 203
e 202 204
e 202 205
e 203 205
e 203 221
e 203 242
e 203 255
e 204 205
e 204 206
e 204 221
e 204 255
e 204 260
e 204 269
e 204 276
e 205 206
e 205 241
e 205 242
e 205 255
e 205 260
e 205 269
e 206 260
e 206 261
e 206 269
e 206 276
e 207 210
e 207 211
e 207 212
e 207 234
e 207 240
e 207 247
e 207 248
e 207 251
e 207 252
e 208 212
e 208 252
e 209 279
e 209 291
e 210 211
e 210 212
e 210 251
e 210 252
e 211 212
e 211 229
e 211 251
e 211 252
e 212 251
e 213 243
e 213 289
e 214 246
e 214 249
e 216 218
e 216 229
e 216 230
e 216 236
e 217 218
e 217 219
e 217 236
e 217 258
e 217 259
e 217 264
e 218 219
e 218 222
e 218 233
e 218 249
e 218 257
e 218 264
e 219 222
e 219 231
e 219 233
e 219 249
e 219 257
e 219 271
e 220 231
e 220 232
e 220 234
e 220 245
e 220 263
e 220 271
e 220 273
e 221 226
e 221 240
e 221 242
e 221 247
e 221 248
e 221 255
e 221 260
e 222 233
e 222 234
e 222 249
e 223 245
e 223 246
e 223 257
e 224 227
e 224 229
e 226 230
e 227 228
e 227 229
e 227 266
e 227 267
e 228 266
e 228 267
e 229 291
e 231 232
e 231 234
e 231 245
e 231 257
e 231 262
e 231 271
e 231 273
e 232 233
e 232 234
e 232 245
e 232 246
e 232 247
e 232 249
e 232 250
e 232 262
e 232 263
e 232 273
e 233 247
e 233 249
e 233 262
e 234 240
e 234 245
e 234 246
e 234 247
e 234 248
e 234 250
e 234 262
e 234 263
e 234 273
e 235 268
e 235 278
e 236 237
e 236 264
e 237 291
e 238 288
e 239 245
e 239 246
e 239 247
e 239 248
e 239 250
e 240 247
e 240 248
e 240 275
e 241 242
e 241 244
e 241 255
e 241 270
e 242 255
e 243 289
e 245 246
e 245 250
e 245 262
e 245 263
e 245 273
e 246 249
e 246 250
e 246 263
e 247 248
e 247 249
e 247 262
e 249 262
e 250 263
e 251 252
e 251 265
e 253 277
e 255 257
e 255 260
e 256 261
e 256 276
e 257 271
e 258 259
e 258 272
e 258 275
e 259 272
e 260 261
e 261 274
e 261 276
e 261 287
e 263 273
e 264 273
e 266 267
e 266 268
e 269 276
e 270 274
e 270 287
e 274 287
e 275 279
e 281 282
e 281 285
e 282 285
e 283 284
e 283 286
e 284 285
e 290 291
w 1 869
w 2 786
w 3 887
w 4 977
w 5 947
w 6 228
w 7 123
w 8 928
w 9 955
w 10 816
w 11 693
w 12 633
w 13 382
w 14 830
w 15 968
w 16 565
w 17 830
w 18 532
w 19 596
w 20 511
w 21 579
w 22 840
w 23 786
w 24 15
w 25 633
w 26 990
w 27 597
w 28 771
w 29 54
w 30 516
w 31 977
w 32 862
w 33 596
w 34 15
w 35 648
w 36 956
w 37 840
w 38 869
w 39 964
w 40 268
w 41 750
w 42 137
w 43 869
w 44 872
w 45 468
w 46 437
w 47 802
w 48 977
w 49 248
w 50 468
w 51 864
w 52 504
w 53 693
w 54 977
w 55 29
w 56 222
w 57 663
w 58 977
w 59 767
w 60 632
w 61 389
w 62 700
w 63 349
w 64 172
w 65 22
w 66 22
w 67 367
w 68 698
w 69 22
w 70 228
w 71 292
w 72 137
w 73 366
w 74 140
w 75 362
w 76 137
w 77 9
w 78 130
w 79 31
w 80 130
w 81 43
w 82 180
w 83 113
w 84 299
w 85 22
w 86 141
w 87 62
w 88 75
w 89 497
w 90 52
w 91 531
w 92 18
w 93 233
w 94 213
w 95 596
w 96 403
w 97 403
w 98 299
w 99 791
w 100 509
w 101 22
w 102 127
w 103 43
w 104 137
w 105 9
w 106 42
w 107 22
w 108 6
w 109 137
w 110 306
w 111 28
w 112 159
w 113 5
w 114 22
w 115 22
w 116 196
w 117 130
w 118 862
w 119 112
w 120 2
w 121 358
w 122 1
w 123 1
w 124 185
w 125 133
w 126 62
w 127 434
w 128 112
w 129 29
w 130 22
w 131 52
w 132 52
w 133 351
w 134 117
w 135 20
w 136 130
w 137 220
w 138 33
w 139 771
w 140 771
w 141 43
w 142 468
w 143 137
w 144 375
w 145 52
w 146 430
w 147 254
w 148 137
w 149 136
w 150 130
w 151 495
w 152 366
w 153 22
w 154 82
w 155 518
w 156 169
w 157 250
w 158 58
w 159 328
w 160 167
w 161 167
w 162 22
w 163 40
w 164 261
w 165 82
w 166 218
w 167 91
w 168 218
w 169 40
w 170 249
w 171 130
w 172 47
w 173 27
w 174 158
w 175 22
w 176 2
w 177 130
w 178 130
w 179 75
w 180 594
w 181 489
w 182 281
w 183 169
w 184 248
w 185 169
w 186 249
w 187 60
w 188 22
w 189 169
w 190 12
w 191 306
w 192 804
w 193 379
w 194 56
w 195 22
w 196 142
w 197 127
w 198 248
w 199 690
w 200 85
w 201 9
w 202 184
w 203 565
w 204 531
w 205 21
w 206 47
w 207 213
w 208 683
w 209 281
w 210 137
w 211 137
w 212 219
w 213 49
w 214 112
w 215 170
w 216 222
w 217 27
w 218 528
w 219 155
w 220 277
w 221 31
w 222 13
w 223 70
w 224 336
w 225 22
w 226 222
w 227 161
w 228 9
w 229 9
w 230 9
w 231 511
w 232 78
w 233 301
w 234 18
w 235 35
w 236 6
w 237 105
w 238 35
w 239 213
w 240 22
w 241 195
w 242 195
w 243 22
w 244 13
w 245 96
w 246 142
w 247 248
w 248 496
w 249 1
w 250 22
w 251 213
w 252 47
w 253 587
w 254 587
w 255 207
w 256 434
w 257 27
w 258 24
w 259 479
w 260 228
w 261 52
w 262 294
w 263 495
w 264 195
w 265 189
w 266 600
w 267 130
w 268 130
w 269 281
w 270 52
w 271 253
w 272 495
w 273 113
w 274 22
w 275 22
w 276 80
w 277 299
w 278 130
w 279 594
w 280 130
w 281 22
w 282 75
w 283 75
w 284 196
w 285 75
w 286 60
w 287 924
w 288 9
w 289 127
w 290 139
w 291 62
n 1 x1
n 2 x3
n 3 x7
n 4 x8
n 5 x10
n 6 x11
n 7 x12
n 8 x13
n 9 x14
n 10 x16
n 11 x18
n 12 x19
n 13 x20
n 14 x22
n 15 x23
n 16 x25
n 17 x26
n 18 x27
n 19 x28
n 20 x30
n 21 x32
n 22 x33
n 23 x34
n 24 x35
n 25 x39
n 26 x43
n 27 x44
n 28 x45
n 29 x47
n 30 x48
n 31 x50
n 32 x51
n 33 x53
n 34 x56
n 35 x57
n 36 x58
n 37 x59
n 38 x60
n 39 x61
n 40 x62
n 41 x65
n 42 x66
n 43 x67
n 44 x68
n 45 x72
n 46 x73
n 47 x74
n 48 x75
n 49 x80
n 50 x81
n 51 x82
n 52 x83
n 53 x84
n 54 x86
n 55 x87
n 56 x88
n 57 x94
n 58 x95
n 59 x96
n 60 x98
n 61 x100
n 62 x101
n 63 x102
n 64 x103
n 65 x116
n 66 x162
n 67 x221
n 68 x275
n 69 x302
n 70 x329
n 71 x429
n 72 x432
n 73 x447
n 74 x448
n 75 x450
n 76 x464
n 77 x477
n 78 x480
n 79 x522
n 80 x607
n 81 x622
n 82 x653
n 83 x669
n 84 x681
n 85 x689
n 86 x817
n 87 x856
n 88 x893
n 89 x895
n 90 x1017
n 91 x1194
n 92 x1216
n 93 x1275
n 94 x1287
n 95 x1293
n 96 x1429
n 97 x1431
n 98 x1453
n 99 x1467
n 100 x1520
n 101 x1628
n 102 x1650
n 103 x1651
n 104 x1736
n 105 x1822
n 106 x1897
n 107 x1898
n 108 x1901
n 109 x1974
n 110 x1997
n 111 x2049
n 112 x2074
n 113 x2075
n 114 x2192
n 115 x2194
n 116 x2219
n 117 x2361
n 118 x2390
n 119 x2435
n 120 x2443
n 121 x2468
n 122 x2469
n 123 x2470
n 124 x2475
n 125 x2483
n 126 x2514
n 127 x2537
n 128 x2557
n 129 x2584
n 130 x2585
n 131 x2687
n 132 x2700
n 133 x2705
n 134 x2732
n 135 x2734
n 136 x2763
n 137 x2764
n 138 x2817
n 139 x2838
n 140 x2872
n 141 x2873
n 142 x2884
n 143 x2924
n 144 x2961
n 145 x3188
n 146 x3203
n 147 x3211
n 148 x3294
n 149 x3322
n 150 x3397
n 151 x3403
n 152 x3439
n 153 x3503
n 154 x3506
n 155 x3518
n 156 x3529
n 157 x3575
n 158 x3590
n 159 x3592
n 160 x3601
n 161 x3620
n 162 x3625
n 163 x3812
n 164 x3820
n 165 x3833
n 166 x3868
n 167 x3877
n 168 x3879
n 169 x3886
n 170 x3899
n 171 x3923
n 172 x3924
n 173 x3925
n 174 x3932
n 175 x3933
n 176 x3945
n 177 x3959
n 178 x3960
n 179 x3984
n 180 x4067
n 181 x4093
n 182 x4094
n 183 x4229
n 184 x4266
n 185 x4304
n 186 x4312
n 187 x4370
n 188 x4395
n 189 x4532
n 190 x4597
n 191 x4648
n 192 x4686
n 193 x4701
n 194 x4715
n 195 x4748
n 196 x4829
n 197 x4848
n 198 x4878
n 199 x4893
n 200 x4934
n 201 x5018
n 202 x5028
n 203 x5032
n 204 x5042
n 205 x5047
n 206 x5058
n 207 x5190
n 208 x5212
n 209 x5259
n 210 x5263
n 211 x5265
n 212 x5266
n 213 x5345
n 214 x5374
n 215 x5395
n 216 x5409
n 217 x5422
n 218 x5425
n 219 x5430
n 220 x5474
n 221 x5649
n 222 x5715
n 223 x5729
n 224 x5752
n 225 x5818
n 226 x5827
n 227 x5963
n 228 x5964
n 229 x5968
n 230 x6000
n 231 x6046
n 232 x6058
n 233 x6069
n 234 x6136
n 235 x6176
n 236 x6191
n 237 x6217
n 238 x6425
n 239 x6494
n 240 x6596
n 241 x6635
n 242 x6640
n 243 x6883
n 244 x6900
n 245 x6937
n 246 x6941
n 247 x6954
n 248 x6958
n 249 x6986
n 250 x7019
n 251 x7119
n 252 x7125
n 253 x7184
n 254 x7232
n 255 x7334
n 256 x7371
n 257 x7434
n 258 x7437
n 259 x7445
n 260 x7512
n 261 x7612
n 262 x7624
n 263 x7665
n 264 x7675
n 265 x7722
n 266 x7731
n 267 x7734
n 268 x7750
n 269 x7821
n 270 x7836
n 271 x7889
n 272 x7911
n 273 x7960
n 274 x8094
n 275 x8098
n 276 x8131
n 277 x8351
n 278 x8365
n 279 x8524
n 280 x8525
n 281 x8586
n 282 x8603
n 283 x8605
n 284 x8615
n 285 x8626
n 286 x8627
n 287 x8636
n 288 x8667
n 289 x8671
n 290 x8699
n 291 x8704
o 1 1
o 2 3
o 3 7
o 4 8
o 5 10
o 6 11
o 7 12
o 8 13
o 9 14
o 10 16
o 11 18
o 12 19
o 13 20
o 14 22
o 15 23
o 16 25
o 17 26
o 18 27
o 19 28
o 20 30
o 21 32
o 22 33
o 23 34
o 24 35
o 25 39
o 26 43
o 27 44
o 28 45
o 29 47
o 30 48
o 31 50
o 32 51
o 33 53
o 34 56
o 35 57
o 36 58
o 37 59
o 38 60
o 39 61
o 40 62
o 41 65
o 42 66
o 43 67
o 44 68
o 45 72
o 46 73
o 47 74
o 48 75
o 49 80
o 50 81
o 51 82
o 52 83
o 53 84
o 54 86
o 55 87
o 56 88
o 57 94
o 58 95
o 59 96
o 60 98
o 61 100
o 62 101
o 63 102
o 64 103
o 65 116
o 66 162
o 67 221
o 68 275
o 69 302
o 70 329
o 71 429
o 72 432
o 73 447
o 74 448
o 75 450
o 76 464
o 77 477
o 78 480
o 79 522
o 80 607
o 81 622
o 82 653
o 83 669
o 84 681
o 85 689
o 86 817
o 87 856
o 88 893
o 89 895
o 90 1017
o 91 1194
o 92 1216
o 93 1275
o 94 1287
o 95 1293
o 96 1429
o 97 1431
o 98 1453
o 99 1467
o 100 1520
o 101 1628
o 102 1650
o 103 1651
o 104 1736
o 105 1822
o 106 1897
o 107 1898
o 108 1901
o 109 1974
o 110 1997
o 111 2049
o 112 2074
o 113 2075
o 114 2192
o 115 2194
o 116 2219
o 117 2361
o 118 2390
o 119 2435
o 120 2443
o 121 2468
o 122 2469
o 123 2470
o 124 2475
o 125 2483
o 126 2514
o 127 2537
o 128 2557
o 129 2584
o 130 2585
o 131 2687
o 132 2700
o 133 2705
o 134 2732
o 135 2734
o 136 2763
o 137 2764
o 138 2817
o 139 2838
o 140 2872
o 141 2873
o 142 2884
o 143 2924
o 144 2961
o 145 3188
o 146 3203
o 147 3211
o 148 3294
o 149 3322
o 150 3397
o 151 3403
o 152 3439
o 153 3503
o 154 3506
o 155 3518
o 156 3529
o 157 3575
o 158 3590
o 159 3592
o 160 3601
o 161 3620
o 162 3625
o 163 3812
o 164 3820
o 165 3833
o 166 3868
o 167 3877
o 168 3879
o 169 3886
o 170 3899
o 171 3923
o 172 3924
o 173 3925
o 174 3932
o 175 3933
o 176 3945
o 177 3959
o 178 3960
o 179 3984
o 180 4067
o 181 4093
o 182 4094
o 183 4229
o 184 4266
o 185 4304
o 186 4312
o 187 4370
o 188 4395
o 189 4532
o 190 4597
o 191 4648
o 192 4686
o 193 4701
o 194 4715
o 195 4748
o 196 4829
o 197 4848
o 198 4878
o 199 4893
o 200 4934
o 201 5018
o 202 5028
o 203 5032
o 204 5042
o 205 5047
o 206 5058
o 207 5190
o 208 5212
o 209 5259
o 210 5263
o 211 5265
o 212 5266
o 213 5345
o 214 5374
o 215 5395
o 216 5409
o 217 5422
o 218 5425
o 219 5430
o 220 5474
o 221 5649
o 222 5715
o 223 5729
o 224 5752
o 225 5818
o 226 5827
o 227 5963
o 228 5964
o 229 5968
o 230 6000
o 231 6046
o 232 6058
o 233 6069
o 234 6136
o 235 6176
o 236 6191
o 237 6217
o 238 6425
o 239 6494
o 240 6596
o 241 6635
o 242 6640
o 243 6883
o 244 6900
o 245 6937
o 246 6941
o 247 6954
o 248 6958
o 249 6986
o 250 7019
o 251 7119
o 252 7125
o 253 7184
o 254 7232
o 255 7334
o 256 7371
o 257 7434
o 258 7437
o 259 7445
o 260 7512
o 261 7612
o 262 7624
o 263 7665
o 264 7675
o 265 7722
o 266 7731
o 267 7734
o 268 7750
o 269 7821
o 270 7836
o 271 7889
o 272 7911
o 273 7960
o 274 8094
o 275 8098
o 276 8131
o 277 8351
o 278 8365
o 279 8524
o 280 8525
o 281 8586
o 282 8603
o 283 8605
o 284 8615
o 285 8626
o 286 8627
o 287 8636
o 288 8667
o 289 8671
o 290 8699
o 291 8704
